24° run output:
{
    "Function": "kroA500.tsp",
    "Problem dimension": [
        308,
        236,
        215,
        241,
        468,
        169,
        327,
        83,
        26,
        96,
        47,
        233,
        177,
        147,
        423,
        160,
        116,
        23,
        322,
        380,
        371,
        58,
        5,
        350,
        288,
        294,
        463,
        170,
        186,
        242,
        25,
        292,
        449,
        306,
        453,
        95,
        43,
        355,
        148,
        24,
        145,
        199,
        208,
        492,
        448,
        70,
        93,
        240,
        337,
        103,
        332,
        342,
        124,
        260,
        366,
        256,
        155,
        415,
        164,
        196,
        459,
        354,
        113,
        309,
        429,
        392,
        19,
        486,
        232,
        450,
        111,
        461,
        424,
        167,
        469,
        421,
        419,
        201,
        214,
        481,
        364,
        493,
        92,
        451,
        14,
        427,
        9,
        188,
        59,
        252,
        339,
        146,
        490,
        162,
        171,
        99,
        141,
        180,
        161,
        372,
        239,
        46,
        296,
        174,
        115,
        50,
        434,
        416,
        405,
        132,
        311,
        250,
        293,
        44,
        345,
        38,
        374,
        336,
        290,
        365,
        67,
        136,
        16,
        134,
        417,
        363,
        90,
        343,
        223,
        4,
        87,
        253,
        370,
        187,
        35,
        152,
        30,
        126,
        418,
        472,
        425,
        17,
        40,
        72,
        313,
        153,
        431,
        45,
        8,
        176,
        119,
        471,
        443,
        341,
        183,
        389,
        272,
        426,
        498,
        456,
        438,
        78,
        197,
        129,
        402,
        105,
        10,
        206,
        289,
        271,
        65,
        273,
        275,
        144,
        267,
        395,
        254,
        29,
        74,
        359,
        91,
        207,
        495,
        190,
        360,
        277,
        473,
        218,
        397,
        37,
        307,
        228,
        42,
        318,
        482,
        391,
        69,
        229,
        323,
        304,
        63,
        321,
        324,
        243,
        189,
        230,
        6,
        281,
        368,
        488,
        227,
        175,
        181,
        436,
        312,
        128,
        32,
        398,
        465,
        226,
        299,
        376,
        209,
        351,
        310,
        235,
        316,
        12,
        386,
        127,
        3,
        203,
        110,
        422,
        139,
        118,
        475,
        462,
        411,
        414,
        403,
        55,
        27,
        22,
        149,
        435,
        204,
        338,
        441,
        382,
        1,
        104,
        297,
        49,
        390,
        107,
        221,
        117,
        15,
        51,
        222,
        34,
        340,
        213,
        220,
        121,
        412,
        437,
        348,
        458,
        278,
        122,
        483,
        452,
        195,
        494,
        151,
        357,
        2,
        100,
        317,
        237,
        258,
        346,
        75,
        328,
        179,
        73,
        56,
        409,
        266,
        61,
        410,
        82,
        150,
        143,
        330,
        247,
        484,
        440,
        125,
        487,
        384,
        64,
        362,
        108,
        430,
        455,
        466,
        264,
        166,
        280,
        60,
        381,
        123,
        211,
        474,
        198,
        284,
        367,
        303,
        52,
        109,
        325,
        77,
        84,
        154,
        53,
        255,
        388,
        20,
        454,
        291,
        245,
        400,
        94,
        219,
        138,
        217,
        432,
        401,
        85,
        276,
        71,
        142,
        467,
        89,
        216,
        244,
        270,
        305,
        79,
        120,
        282,
        379,
        499,
        478,
        446,
        326,
        102,
        262,
        404,
        202,
        257,
        349,
        163,
        295,
        444,
        286,
        137,
        114,
        420,
        200,
        165,
        477,
        333,
        344,
        98,
        191,
        347,
        319,
        48,
        287,
        479,
        178,
        442,
        192,
        225,
        88,
        246,
        212,
        335,
        378,
        373,
        41,
        464,
        407,
        68,
        476,
        28,
        135,
        39,
        470,
        428,
        439,
        21,
        156,
        7,
        210,
        182,
        302,
        97,
        496,
        140,
        133,
        394,
        301,
        480,
        279,
        274,
        157,
        251,
        300,
        261,
        385,
        460,
        491,
        358,
        259,
        159,
        497,
        285,
        62,
        361,
        265,
        334,
        387,
        485,
        194,
        33,
        224,
        184,
        101,
        369,
        57,
        268,
        489,
        173,
        66,
        314,
        329,
        320,
        18,
        238,
        457,
        377,
        80,
        408,
        112,
        131,
        76,
        249,
        433,
        185,
        406,
        0,
        130,
        356,
        168,
        231,
        352,
        13,
        375,
        234,
        353,
        248,
        54,
        106,
        331,
        158,
        31,
        298,
        86,
        383,
        315,
        193,
        205,
        81,
        263,
        413,
        172,
        283,
        11,
        447,
        269,
        399,
        36,
        393,
        396,
        445
    ],
    "Global Optimum": 0,
    "Algorithm": "Genetic algorithm",
    "Parameters": {
        "population": 30,
        "offspring": 30,
        "mutation probability": 0.002,
        "crossover probability": 0.9
    },
    "Fitness": 510495,
    "Solution": [
        308,
        236,
        215,
        241,
        468,
        169,
        327,
        83,
        26,
        96,
        47,
        233,
        177,
        147,
        423,
        160,
        116,
        23,
        322,
        380,
        371,
        58,
        5,
        350,
        288,
        294,
        463,
        170,
        186,
        242,
        25,
        292,
        449,
        306,
        453,
        95,
        43,
        355,
        148,
        24,
        145,
        199,
        208,
        492,
        448,
        70,
        93,
        240,
        337,
        103,
        332,
        342,
        124,
        260,
        366,
        256,
        155,
        415,
        164,
        196,
        459,
        354,
        113,
        309,
        429,
        392,
        19,
        486,
        232,
        450,
        111,
        461,
        424,
        167,
        469,
        421,
        419,
        201,
        214,
        481,
        364,
        493,
        92,
        451,
        14,
        427,
        9,
        188,
        59,
        252,
        339,
        146,
        490,
        162,
        171,
        99,
        141,
        180,
        161,
        372,
        239,
        46,
        296,
        174,
        115,
        50,
        434,
        416,
        405,
        132,
        311,
        250,
        293,
        44,
        345,
        38,
        374,
        336,
        290,
        365,
        67,
        136,
        16,
        134,
        417,
        363,
        90,
        343,
        223,
        4,
        87,
        253,
        370,
        187,
        35,
        152,
        30,
        126,
        418,
        472,
        425,
        17,
        40,
        72,
        313,
        153,
        431,
        45,
        8,
        176,
        119,
        471,
        443,
        341,
        183,
        389,
        272,
        426,
        498,
        456,
        438,
        78,
        197,
        129,
        402,
        105,
        10,
        206,
        289,
        271,
        65,
        273,
        275,
        144,
        267,
        395,
        254,
        29,
        74,
        359,
        91,
        207,
        495,
        190,
        360,
        277,
        473,
        218,
        397,
        37,
        307,
        228,
        42,
        318,
        482,
        391,
        69,
        229,
        323,
        304,
        63,
        321,
        324,
        243,
        189,
        230,
        6,
        281,
        368,
        488,
        227,
        175,
        181,
        436,
        312,
        128,
        32,
        398,
        465,
        226,
        299,
        376,
        209,
        351,
        310,
        235,
        316,
        12,
        386,
        127,
        3,
        203,
        110,
        422,
        139,
        118,
        475,
        462,
        411,
        414,
        403,
        55,
        27,
        22,
        149,
        435,
        204,
        338,
        441,
        382,
        1,
        104,
        297,
        49,
        390,
        107,
        221,
        117,
        15,
        51,
        222,
        34,
        340,
        213,
        220,
        121,
        412,
        437,
        348,
        458,
        278,
        122,
        483,
        452,
        195,
        494,
        151,
        357,
        2,
        100,
        317,
        237,
        258,
        346,
        75,
        328,
        179,
        73,
        56,
        409,
        266,
        61,
        410,
        82,
        150,
        143,
        330,
        247,
        484,
        440,
        125,
        487,
        384,
        64,
        362,
        108,
        430,
        455,
        466,
        264,
        166,
        280,
        60,
        381,
        123,
        211,
        474,
        198,
        284,
        367,
        303,
        52,
        109,
        325,
        77,
        84,
        154,
        53,
        255,
        388,
        20,
        454,
        291,
        245,
        400,
        94,
        219,
        138,
        217,
        432,
        401,
        85,
        276,
        71,
        142,
        467,
        89,
        216,
        244,
        270,
        305,
        79,
        120,
        282,
        379,
        499,
        478,
        446,
        326,
        102,
        262,
        404,
        202,
        257,
        349,
        163,
        295,
        444,
        286,
        137,
        114,
        420,
        200,
        165,
        477,
        333,
        344,
        98,
        191,
        347,
        319,
        48,
        287,
        479,
        178,
        442,
        192,
        225,
        88,
        246,
        212,
        335,
        378,
        373,
        41,
        464,
        407,
        68,
        476,
        28,
        135,
        39,
        470,
        428,
        439,
        21,
        156,
        7,
        210,
        182,
        302,
        97,
        496,
        140,
        133,
        394,
        301,
        480,
        279,
        274,
        157,
        251,
        300,
        261,
        385,
        460,
        491,
        358,
        259,
        159,
        497,
        285,
        62,
        361,
        265,
        334,
        387,
        485,
        194,
        33,
        224,
        184,
        101,
        369,
        57,
        268,
        489,
        173,
        66,
        314,
        329,
        320,
        18,
        238,
        457,
        377,
        80,
        408,
        112,
        131,
        76,
        249,
        433,
        185,
        406,
        0,
        130,
        356,
        168,
        231,
        352,
        13,
        375,
        234,
        353,
        248,
        54,
        106,
        331,
        158,
        31,
        298,
        86,
        383,
        315,
        193,
        205,
        81,
        263,
        413,
        172,
        283,
        11,
        447,
        269,
        399,
        36,
        393,
        396,
        445
    ],
    "Nb of functions evaluations": 400020,
    "Computational time in seconds": 1927.5632605552673,
    "Stopping criterion in evaluations": 400000
}